(set-logic HORN)

(declare-datatypes ((Nat_0 0)) (((Z_0 ) (S_0  (projS_0 Nat_0)))))

(declare-fun |diseqNat_0| ( Nat_0 Nat_0 ) Bool)
(declare-fun |x_4| ( Nat_0 Nat_0 Nat_0 ) Bool)
(declare-fun |x_0| ( Nat_0 Nat_0 Nat_0 ) Bool)
(declare-fun |mult_0| ( Nat_0 Nat_0 Nat_0 Nat_0 ) Bool)

(assert
  (forall ( (A Nat_0) (B Nat_0) (v_2 Nat_0) ) 
    (=>
      (and
        (and (= A (S_0 B)) (= v_2 Z_0))
      )
      (diseqNat_0 v_2 A)
    )
  )
)
(assert
  (forall ( (A Nat_0) (B Nat_0) (v_2 Nat_0) ) 
    (=>
      (and
        (and (= A (S_0 B)) (= v_2 Z_0))
      )
      (diseqNat_0 A v_2)
    )
  )
)
(assert
  (forall ( (A Nat_0) (B Nat_0) (C Nat_0) (D Nat_0) ) 
    (=>
      (and
        (diseqNat_0 C D)
        (and (= B (S_0 C)) (= A (S_0 D)))
      )
      (diseqNat_0 B A)
    )
  )
)
(assert
  (forall ( (A Nat_0) (B Nat_0) (C Nat_0) (D Nat_0) (E Nat_0) ) 
    (=>
      (and
        (x_0 C D E)
        (and (= A (S_0 D)) (= B (S_0 C)))
      )
      (x_0 B A E)
    )
  )
)
(assert
  (forall ( (A Nat_0) (v_1 Nat_0) (v_2 Nat_0) ) 
    (=>
      (and
        (and true (= v_1 Z_0) (= v_2 A))
      )
      (x_0 A v_1 v_2)
    )
  )
)
(assert
  (forall ( (A Nat_0) (B Nat_0) (C Nat_0) (D Nat_0) (E Nat_0) (F Nat_0) ) 
    (=>
      (and
        (mult_0 B D E C)
        (x_0 C E F)
        (= A (S_0 D))
      )
      (mult_0 B A E F)
    )
  )
)
(assert
  (forall ( (A Nat_0) (B Nat_0) (v_2 Nat_0) (v_3 Nat_0) ) 
    (=>
      (and
        (and true (= v_2 Z_0) (= v_3 A))
      )
      (mult_0 A v_2 B v_3)
    )
  )
)
(assert
  (forall ( (A Nat_0) (B Nat_0) (C Nat_0) (D Nat_0) (E Nat_0) ) 
    (=>
      (and
        (x_0 B E C)
        (x_4 C D E)
        (= A (S_0 D))
      )
      (x_4 B A E)
    )
  )
)
(assert
  (forall ( (A Nat_0) (v_1 Nat_0) (v_2 Nat_0) ) 
    (=>
      (and
        (and true (= v_1 Z_0) (= v_2 Z_0))
      )
      (x_4 v_1 v_2 A)
    )
  )
)
(assert
  (forall ( (A Nat_0) (B Nat_0) (C Nat_0) (D Nat_0) (v_4 Nat_0) ) 
    (=>
      (and
        (diseqNat_0 A B)
        (mult_0 B C D v_4)
        (x_4 A C D)
        (= v_4 Z_0)
      )
      false
    )
  )
)

(check-sat)
(exit)
